unsat
( c10
  c1004
  c16
  c17
  c18
  c19
  c2354
  c2372
  c2605
  c2612
  c2622
  c2629
  c2639
  c2726
  c2732
  c2746
  c2815
  c3098
  c3160
  c3239
  c3590
  c401
  c435
  c777
  c788
  c814
  c862
  c9 )
